solution status: optimal solution found
objective value:                     215678.499339553
d11(0,0)                                            1 	(obj:0)
d11(1,1)                                            1 	(obj:0)
d11(3,7)                                            1 	(obj:0)
d11(3,9)                                            1 	(obj:0)
d11(3,11)                                           1 	(obj:0)
d11(3,13)                                           1 	(obj:0)
d11(4,17)                           0.999999999999985 	(obj:0)
d11(4,19)                           0.999999999999985 	(obj:0)
d11(4,23)                                           1 	(obj:0)
d11(4,25)                                           1 	(obj:0)
d11(4,27)                           0.999999999999985 	(obj:0)
d11(4,29)                           0.999999999999985 	(obj:0)
d11(5,31)                                           1 	(obj:0)
d11(5,32)                                           1 	(obj:0)
d11(5,33)                                           1 	(obj:0)
d11(5,34)                                           1 	(obj:0)
d11(5,35)                                           1 	(obj:0)
d11(5,36)                                           1 	(obj:0)
d11(5,37)                                           1 	(obj:0)
d11(5,38)                                           1 	(obj:0)
d11(5,39)                                           1 	(obj:0)
d11(5,40)                                           1 	(obj:0)
d11(5,41)                                           1 	(obj:0)
d11(5,42)                                           1 	(obj:0)
d11(5,43)                                           1 	(obj:0)
d11(5,44)                                           1 	(obj:0)
d11(5,45)                                           1 	(obj:0)
d11(5,46)                                           1 	(obj:0)
d11(5,47)                                           1 	(obj:0)
d11(5,48)                                           1 	(obj:0)
d11(5,49)                                           1 	(obj:0)
d11(5,50)                                           1 	(obj:0)
d11(5,51)                                           1 	(obj:0)
d11(5,52)                                           1 	(obj:0)
d11(5,53)                                           1 	(obj:0)
d11(5,55)                                           1 	(obj:0)
d11(5,56)                                           1 	(obj:0)
d11(5,57)                                           1 	(obj:0)
d11(5,58)                                           1 	(obj:0)
d11(5,59)                                           1 	(obj:0)
d11(5,60)                                           1 	(obj:0)
d11(5,61)                                           1 	(obj:0)
d11(5,62)                                           1 	(obj:0)
d11(6,63)                                           1 	(obj:0)
d11(6,64)                                           1 	(obj:0)
d11(6,65)                                           1 	(obj:0)
d11(6,66)                                           1 	(obj:0)
d11(6,67)                                           1 	(obj:0)
d11(6,69)                                           1 	(obj:0)
d11(6,70)                                           1 	(obj:0)
d11(6,71)                                           1 	(obj:0)
d11(6,72)                                           1 	(obj:0)
d11(6,73)                                           1 	(obj:0)
d11(6,74)                                           1 	(obj:0)
d11(6,75)                                           1 	(obj:0)
d11(6,76)                                           1 	(obj:0)
d11(6,77)                                           1 	(obj:0)
d11(6,78)                                           1 	(obj:0)
d11(6,79)                                           1 	(obj:0)
d11(6,80)                                           1 	(obj:0)
d11(6,81)                                           1 	(obj:0)
d11(6,82)                                           1 	(obj:0)
d11(6,83)                                           1 	(obj:0)
d11(6,84)                                           1 	(obj:0)
d11(6,85)                                           1 	(obj:0)
d11(6,86)                                           1 	(obj:0)
d11(6,87)                                           1 	(obj:0)
d11(6,88)                                           1 	(obj:0)
d11(6,89)                                           1 	(obj:0)
d11(6,90)                                           1 	(obj:0)
d11(6,91)                                           1 	(obj:0)
d11(6,92)                                           1 	(obj:0)
d11(6,93)                                           1 	(obj:0)
d11(6,94)                                           1 	(obj:0)
d11(6,95)                                           1 	(obj:0)
d11(6,96)                                           1 	(obj:0)
d11(6,97)                                           1 	(obj:0)
d11(6,98)                                           1 	(obj:0)
d11(6,99)                                           1 	(obj:0)
d11(6,100)                                          1 	(obj:0)
d11(6,101)                                          1 	(obj:0)
d11(6,102)                                          1 	(obj:0)
d11(6,103)                                          1 	(obj:0)
d11(6,104)                                          1 	(obj:0)
d11(6,105)                                          1 	(obj:0)
d11(6,106)                                          1 	(obj:0)
d11(6,107)                                          1 	(obj:0)
d11(6,108)                                          1 	(obj:0)
d11(6,109)                                          1 	(obj:0)
d11(6,110)                                          1 	(obj:0)
d11(6,111)                                          1 	(obj:0)
d11(6,112)                                          1 	(obj:0)
d11(6,113)                                          1 	(obj:0)
d11(6,114)                                          1 	(obj:0)
d11(6,115)                                          1 	(obj:0)
d11(6,116)                                          1 	(obj:0)
d11(6,117)                                          1 	(obj:0)
d11(6,118)                                          1 	(obj:0)
d11(6,119)                                          1 	(obj:0)
d11(6,120)                                          1 	(obj:0)
d11(6,121)                                          1 	(obj:0)
d11(6,122)                                          1 	(obj:0)
d11(6,123)                                          1 	(obj:0)
d11(6,124)                                          1 	(obj:0)
d11(6,125)                                          1 	(obj:0)
d11(6,126)                                          1 	(obj:0)
d12(2,4)                                            1 	(obj:0)
d12(2,6)                                            1 	(obj:0)
d12(3,8)                                            1 	(obj:0)
d12(3,10)                                           1 	(obj:0)
d12(3,12)                                           1 	(obj:0)
d12(3,14)                                           1 	(obj:0)
d12(4,16)                                           1 	(obj:0)
d12(4,18)                                           1 	(obj:0)
d12(4,20)                                           1 	(obj:0)
d12(4,22)                                           1 	(obj:0)
d12(4,24)                                           1 	(obj:0)
d12(4,26)                                           1 	(obj:0)
d12(4,28)                                           1 	(obj:0)
d12(4,30)                                           1 	(obj:0)
d21(4,15)                                           1 	(obj:0)
d21(5,31)                                           1 	(obj:0)
d21(5,32)                                           1 	(obj:0)
d21(5,33)                                           1 	(obj:0)
d21(5,35)                                           1 	(obj:0)
d21(5,39)                                           1 	(obj:0)
d21(5,47)                                           1 	(obj:0)
d21(6,63)                                           1 	(obj:0)
d21(6,64)                                           1 	(obj:0)
d21(6,65)                                           1 	(obj:0)
d21(6,66)                                           1 	(obj:0)
d21(6,67)                                           1 	(obj:0)
d21(6,68)                                           1 	(obj:0)
d21(6,69)                                           1 	(obj:0)
d21(6,71)                                           1 	(obj:0)
d21(6,72)                                           1 	(obj:0)
d21(6,73)                                           1 	(obj:0)
d21(6,75)                                           1 	(obj:0)
d21(6,76)                                           1 	(obj:0)
d21(6,77)                                           1 	(obj:0)
d21(6,79)                                           1 	(obj:0)
d21(6,80)                                           1 	(obj:0)
d21(6,81)                                           1 	(obj:0)
d21(6,83)                                           1 	(obj:0)
d21(6,84)                                           1 	(obj:0)
d21(6,85)                                           1 	(obj:0)
d21(6,87)                                           1 	(obj:0)
d21(6,88)                                           1 	(obj:0)
d21(6,89)                                           1 	(obj:0)
d21(6,91)                                           1 	(obj:0)
d21(6,95)                                           1 	(obj:0)
d21(6,96)                                           1 	(obj:0)
d21(6,97)                                           1 	(obj:0)
d21(6,99)                                           1 	(obj:0)
d21(6,103)                                          1 	(obj:0)
d21(6,107)                                          1 	(obj:0)
d21(6,111)                                          1 	(obj:0)
d21(6,115)                                          1 	(obj:0)
d21(6,119)                                          1 	(obj:0)
STE(1,1)                             4137.75010111115 	(obj:0)
STE(0,0)                                         6300 	(obj:0)
STE(1,2)                                         5796 	(obj:0)
STE(2,3)                             3633.75010111115 	(obj:0)
STE(2,4)                             4949.96418698766 	(obj:0)
STE(2,5)                                         5292 	(obj:0)
STE(2,6)                             6608.21408587651 	(obj:0)
STE(3,7)                             2085.78591412347 	(obj:0)
STE(3,8)                             3516.94258752646 	(obj:0)
STE(3,9)                             3401.99999999997 	(obj:0)
STE(3,10)                            4833.15667340297 	(obj:0)
STE(3,11)                            3744.03581301231 	(obj:0)
STE(3,12)                             5175.1924864153 	(obj:0)
STE(3,13)                            5060.24989888882 	(obj:0)
STE(3,14)                            6491.40657229181 	(obj:0)
STE(4,15)                            1581.78591412347 	(obj:0)
STE(4,16)                            2897.99999999997 	(obj:0)
STE(4,17)                            3012.94258752646 	(obj:0)
STE(4,18)                            4329.15667340297 	(obj:0)
STE(4,19)                            2897.99999999997 	(obj:0)
STE(4,20)                            4214.21408587648 	(obj:0)
STE(4,21)                            4329.15667340297 	(obj:0)
STE(4,22)                            5645.37075927947 	(obj:0)
STE(4,23)                            3240.03581301235 	(obj:0)
STE(4,24)                            4556.24989888882 	(obj:0)
STE(4,25)                            4671.19248641535 	(obj:0)
STE(4,26)                            5987.40657229181 	(obj:0)
STE(4,27)                            4556.24989888882 	(obj:0)
STE(4,28)                            5872.46398476532 	(obj:0)
STE(4,29)                            5987.40657229181 	(obj:0)
STE(4,30)                            7303.62065816831 	(obj:0)
STE(5,31)                            -580.46398476535 	(obj:0)
STE(5,32)                            1077.78591412347 	(obj:0)
STE(5,33)                            735.750101111155 	(obj:0)
STE(5,34)                            2393.99999999997 	(obj:0)
STE(5,35)                            850.692688637643 	(obj:0)
STE(5,36)                            2508.94258752646 	(obj:0)
STE(5,37)                            2166.90677451415 	(obj:0)
STE(5,38)                            3825.15667340297 	(obj:0)
STE(5,39)                            735.750101111155 	(obj:0)
STE(5,40)                            2393.99999999997 	(obj:0)
STE(5,41)                            2051.96418698766 	(obj:0)
STE(5,42)                            3710.21408587648 	(obj:0)
STE(5,43)                            2166.90677451415 	(obj:0)
STE(5,44)                            3825.15667340297 	(obj:0)
STE(5,45)                            3483.12086039065 	(obj:0)
STE(5,46)                            5141.37075927947 	(obj:0)
STE(5,47)                            1077.78591412354 	(obj:0)
STE(5,48)                            2736.03581301235 	(obj:0)
STE(5,49)                                        2394 	(obj:0)
STE(5,50)                            4052.24989888876 	(obj:0)
STE(5,51)                            2508.94258752653 	(obj:0)
STE(5,52)                            4167.19248641535 	(obj:0)
STE(5,53)                            3825.15667340299 	(obj:0)
STE(5,54)                            5483.40657229181 	(obj:0)
STE(5,55)                                        2394 	(obj:0)
STE(5,56)                            4052.24989888882 	(obj:0)
STE(5,57)                            3710.21408587651 	(obj:0)
STE(5,58)                            5368.46398476532 	(obj:0)
STE(5,59)                            3825.15667340299 	(obj:0)
STE(5,60)                            5483.40657229181 	(obj:0)
STE(5,61)                             5141.3707592795 	(obj:0)
STE(5,62)                            6799.62065816831 	(obj:0)
STE(6,63)                           -2742.71388365417 	(obj:0)
STE(6,64)                           -1084.46398476535 	(obj:0)
STE(6,65)                           -1084.46398476535 	(obj:0)
STE(6,66)                            573.785914123467 	(obj:0)
STE(6,67)                           -1426.49979777766 	(obj:0)
STE(6,68)                            231.750101111155 	(obj:0)
STE(6,69)                            231.750101111155 	(obj:0)
STE(6,70)                            1889.99999999997 	(obj:0)
STE(6,71)                           -1311.55721025117 	(obj:0)
STE(6,72)                            346.692688637644 	(obj:0)
STE(6,73)                            346.692688637644 	(obj:0)
STE(6,74)                            2004.94258752646 	(obj:0)
STE(6,75)                            4.65687562533163 	(obj:0)
STE(6,76)                            1662.90677451415 	(obj:0)
STE(6,77)                            1662.90677451415 	(obj:0)
STE(6,78)                            3321.15667340297 	(obj:0)
STE(6,79)                           -1426.49979777766 	(obj:0)
STE(6,80)                            231.750101111155 	(obj:0)
STE(6,81)                            231.750101111155 	(obj:0)
STE(6,82)                            1889.99999999997 	(obj:0)
STE(6,83)                           -110.285711901157 	(obj:0)
STE(6,84)                            1547.96418698766 	(obj:0)
STE(6,85)                            1547.96418698766 	(obj:0)
STE(6,86)                            3206.21408587648 	(obj:0)
STE(6,87)                            4.65687562533163 	(obj:0)
STE(6,88)                            1662.90677451415 	(obj:0)
STE(6,89)                            1662.90677451415 	(obj:0)
STE(6,90)                            3321.15667340297 	(obj:0)
STE(6,91)                            1320.87096150184 	(obj:0)
STE(6,92)                            2979.12086039065 	(obj:0)
STE(6,93)                            2979.12086039065 	(obj:0)
STE(6,94)                            4637.37075927947 	(obj:0)
STE(6,95)                           -1084.46398476528 	(obj:0)
STE(6,96)                            573.785914123537 	(obj:0)
STE(6,97)                            573.785914123537 	(obj:0)
STE(6,98)                            2232.03581301235 	(obj:0)
STE(6,99)                            231.750101111183 	(obj:0)
STE(6,100)                                       1890 	(obj:0)
STE(6,101)                           1889.99999999994 	(obj:0)
STE(6,102)                           3548.24989888876 	(obj:0)
STE(6,103)                           346.692688637711 	(obj:0)
STE(6,104)                           2004.94258752653 	(obj:0)
STE(6,105)                           2004.94258752653 	(obj:0)
STE(6,106)                           3663.19248641535 	(obj:0)
STE(6,107)                           1662.90677451417 	(obj:0)
STE(6,108)                           3321.15667340299 	(obj:0)
STE(6,109)                           3321.15667340299 	(obj:0)
STE(6,110)                           4979.40657229181 	(obj:0)
STE(6,111)                           231.750101111183 	(obj:0)
STE(6,112)                                       1890 	(obj:0)
STE(6,113)                                       1890 	(obj:0)
STE(6,114)                           3548.24989888882 	(obj:0)
STE(6,115)                           1547.96418698769 	(obj:0)
STE(6,116)                           3206.21408587651 	(obj:0)
STE(6,117)                           3206.21408587651 	(obj:0)
STE(6,118)                           4864.46398476532 	(obj:0)
STE(6,119)                           1662.90677451417 	(obj:0)
STE(6,120)                           3321.15667340299 	(obj:0)
STE(6,121)                           3321.15667340299 	(obj:0)
STE(6,122)                           4979.40657229181 	(obj:0)
STE(6,123)                           2979.12086039068 	(obj:0)
STE(6,124)                            4637.3707592795 	(obj:0)
STE(6,125)                            4637.3707592795 	(obj:0)
STE(6,126)                           6295.62065816831 	(obj:0)
y1(6,99)                             1492.42490899994 	(obj:0)
y1(6,101)                            1492.42490899994 	(obj:0)
y1(6,103)                            1492.42490899994 	(obj:0)
y1(6,105)                            1492.42490899994 	(obj:0)
y1(6,107)                            1492.42490899994 	(obj:0)
y1(6,109)                            1492.42490899994 	(obj:0)
y1(6,111)                            1492.42490899994 	(obj:0)
y1(6,113)                            1492.42490899994 	(obj:0)
y1(6,115)                            1492.42490899994 	(obj:0)
y1(6,117)                            1492.42490899994 	(obj:0)
y1(6,119)                            1492.42490899994 	(obj:0)
y1(6,121)                            1492.42490899994 	(obj:0)
y1(6,123)                            1492.42490899994 	(obj:0)
y1(6,125)                            1492.42490899994 	(obj:0)
BG(5)                                  4196.292498979 	(obj:10)
BG(6)                                4196.29249897959 	(obj:10)
AVE(1)                               3259.55177567504 	(obj:0)
WB(2)                                3259.55588804169 	(obj:0)
AVE(2)                               3259.55588804169 	(obj:0)
AVE(3)                               3579.36165209166 	(obj:0)
WB(4)                                3579.36576445831 	(obj:0)
AVE(4)                               3579.36576445831 	(obj:0)
WB(5)                                3472.77007794174 	(obj:0)
AVE(5)                               3472.77007794174 	(obj:0)
WB(6)                                 3046.3618950668 	(obj:0)
AVE(6)                                3046.3618950668 	(obj:0)
WG(1)                                3259.55177567504 	(obj:10)
WG(3)                                3579.36165209166 	(obj:10)
BG(1)                                936.740723304552 	(obj:10)
BG(2)                                2673.40993877551 	(obj:10)
BG(3)                                52.7909073868461 	(obj:10)
BG(4)                                2673.40993877551 	(obj:10)
y1(1,1)                              1492.42490899996 	(obj:0)
y1(3,7)                               939.56776828892 	(obj:0)
y1(3,9)                               939.56776828892 	(obj:0)
y1(3,11)                              939.56776828892 	(obj:0)
y1(3,13)                              939.56776828892 	(obj:0)
y1(5,31)                             1492.42490899994 	(obj:0)
y1(5,33)                             1492.42490899994 	(obj:0)
y1(5,35)                             1492.42490899994 	(obj:0)
y1(5,37)                             1492.42490899994 	(obj:0)
y1(5,39)                             1492.42490899994 	(obj:0)
y1(5,41)                             1492.42490899994 	(obj:0)
y1(5,43)                             1492.42490899994 	(obj:0)
y1(5,45)                             1492.42490899994 	(obj:0)
y1(5,47)                             1492.42490899994 	(obj:0)
y1(5,49)                             1492.42490899994 	(obj:0)
y1(5,51)                             1492.42490899994 	(obj:0)
y1(5,53)                             1492.42490899994 	(obj:0)
y1(5,55)                             1492.42490899994 	(obj:0)
y1(5,57)                             1492.42490899994 	(obj:0)
y1(5,59)                             1492.42490899994 	(obj:0)
y1(5,61)                             1492.42490899994 	(obj:0)
y1(6,63)                             1492.42490899994 	(obj:0)
y1(6,65)                             1492.42490899994 	(obj:0)
y1(6,67)                             1492.42490899994 	(obj:0)
y1(6,69)                             1492.42490899994 	(obj:0)
y1(6,71)                             1492.42490899994 	(obj:0)
y1(6,73)                             1492.42490899994 	(obj:0)
y1(6,75)                             1492.42490899994 	(obj:0)
y1(6,77)                             1492.42490899994 	(obj:0)
y1(6,79)                             1492.42490899994 	(obj:0)
y1(6,81)                             1492.42490899994 	(obj:0)
y1(6,83)                             1492.42490899994 	(obj:0)
y1(6,85)                             1492.42490899994 	(obj:0)
y1(6,87)                             1492.42490899994 	(obj:0)
y1(6,89)                             1492.42490899994 	(obj:0)
y1(6,91)                             1492.42490899994 	(obj:0)
y1(6,93)                             1492.42490899994 	(obj:0)
y1(6,95)                             1492.42490899994 	(obj:0)
y1(6,97)                             1492.42490899994 	(obj:0)
y2(2,4)                              1385.48851144895 	(obj:0)
y2(2,6)                              1385.48851144895 	(obj:0)
y2(3,8)                              407.571038331901 	(obj:0)
y2(3,10)                             407.571038331901 	(obj:0)
y2(3,12)                             407.571038331898 	(obj:0)
y2(3,14)                             407.571038331898 	(obj:0)
y2(4,16)                             1385.48851144895 	(obj:0)
y2(4,18)                             1385.48851144895 	(obj:0)
y2(4,20)                             1385.48851144895 	(obj:0)
y2(4,22)                             1385.48851144895 	(obj:0)
y2(4,24)                             1385.48851144895 	(obj:0)
y2(4,26)                             1385.48851144895 	(obj:0)
y2(4,28)                             1385.48851144895 	(obj:0)
y2(4,30)                             1385.48851144895 	(obj:0)
